p wcnf 9 32 190
190 1 2 0
190 1 4 0
190 1 5 0
190 1 6 0
190 1 7 0
190 1 9 0
190 2 4 0
190 2 5 0
190 2 6 0
190 2 7 0
190 2 8 0
190 3 4 0
190 3 7 0
190 4 7 0
190 4 9 0
190 5 6 0
190 5 8 0
190 5 9 0
190 6 7 0
190 6 9 0
190 7 8 0
190 7 9 0
190 8 9 0
17 -1 0
17 -2 0
21 -3 0
18 -4 0
18 -5 0
18 -6 0
16 -7 0
19 -8 0
17 -9 0
